p cnf 20 11
a 1 2 3 0
e 4 5 6 7 0
a 8 0
e 9 10 0
a 11 12 0
e 13 0
a 14 15 0
e 16 17 0
a 18 0
e 19 0
a 20 0
13 -1 12 -15 0
16 -14 -8 -5 0
-20 -1 -18 -2 0
14 10 -5 -18 0
-20 -19 -11 0
5 -13 -7 9 0
-7 10 16 -11 14 0
5 4 7 -6 0
-13 19 -18 15 -2 0
8 1 16 0
2 17 0
